solution status: optimal solution found
objective value:                                    5
x29                                                 1 	(obj:1)
x33                                                 1 	(obj:1)
x53                                                 1 	(obj:1)
x68                                                 1 	(obj:1)
x83                                                 1 	(obj:1)
$_103_y                                            13 	(obj:0)
$_103_z                                            17 	(obj:0)
$_67_y                                              9 	(obj:0)
$_67_z                                             17 	(obj:0)
$_61_y                                             13 	(obj:0)
$_61_z                                             14 	(obj:0)
$_68_y                                             10 	(obj:0)
$_68_z                                             14 	(obj:0)
$_87_y                                             13 	(obj:0)
$_87_z                                             16 	(obj:0)
$_85_y                                             10 	(obj:0)
$_85_z                                             16 	(obj:0)
$_91_y                                             13 	(obj:0)
$_91_z                                             18 	(obj:0)
$_149_y                                            12 	(obj:0)
$_149_z                                            14 	(obj:0)
$_63_y                                              8 	(obj:0)
$_63_z                                             16 	(obj:0)
$_60_y                                              9 	(obj:0)
$_60_z                                             14 	(obj:0)
$_43_y                                             11 	(obj:0)
$_43_z                                             15 	(obj:0)
$_99_y                                             10 	(obj:0)
$_99_z                                             18 	(obj:0)
$_150_y                                            11 	(obj:0)
$_150_z                                            14 	(obj:0)
$_83_y                                             11 	(obj:0)
$_83_z                                             18 	(obj:0)
